(set-logic QF_NRA)
(declare-fun y1 () Real)
(declare-fun y12 () Real)
(declare-fun y23 () Real)
(declare-fun y34 () Real)
(declare-fun y41 () Real)
(assert (<= 2.46350884418 y1))
(assert (<= y1 2.52))
(assert (<= 2.0 y12))
(assert (<= y12 2.46350884418))
(assert (<= 2.0 y23))
(assert (<= y23 2.46350884418))
(assert (<= 2.0 y34))
(assert (<= y34 2.46350884418))
(assert (<= 2.0 y41))
(assert (<= y41 2.46350884418))
(assert (not (< (+ (* 2.0 (* 3.14159265 (- 0.114872))) (+ (* (+ 0.116669 (+ 0.08743 (+ 0.148605 0.08743))) y1) (+ (* 2.0 (* (+ 0.080919 (- 0.080919)) y12)) (+ (* 2.0 (* (+ (- 0.080919) 0.080919) y23)) (+ (* 2.0 (* (+ 0.080919 (- 0.080919)) y34)) (+ (* 2.0 (* (+ (- 0.080919) 0.080919) y41)) (+ (- 0.725145) (+ 0.595546 (+ (- 0.853324) 0.595546))))))))) 0.0)))
(check-sat)
(exit)
